277079.0
3469
0 1 2 3 4 6 9 10 13 14 16 17 18 19 20 23 24 25 26 27 29 30 33 34 35 36 37 38 39 40 41 43 44 45 46 47 48 49 50 51 52 53 55 56 57 58 59 60 61 62 64 65 66 68 69 70 71 72 73 75 77 78 81 82 83 84 86 87 88 89 90 92 93 94 95 96 97 98 99 101 102 103 105 107 108 109 110 111 112 113 114 116 117 118 120 121 123 124 125 127 129 131 133 134 135 136 137 138 140 141 143 144 145 146 147 148 149 150 151 152 153 155 157 158 161 162 163 167 168 171 174 175 177 179 181 182 183 185 186 187 188 189 190 192 194 195 196 197 199 